c " random instance " 
p edges 200 4069
e 1 6
e 1 7
e 1 9
e 1 12
e 1 13
e 1 22
e 1 25
e 1 31
e 1 34
e 1 36
e 1 41
e 1 45
e 1 67
e 1 68
e 1 72
e 1 74
e 1 75
e 1 78
e 1 79
e 1 80
e 1 82
e 1 90
e 1 100
e 1 107
e 1 109
e 1 120
e 1 123
e 1 134
e 1 146
e 1 152
e 1 155
e 1 159
e 1 161
e 1 169
e 1 174
e 1 182
e 1 190
e 1 191
e 1 193
e 1 196
e 2 12
e 2 18
e 2 21
e 2 24
e 2 27
e 2 28
e 2 36
e 2 47
e 2 53
e 2 56
e 2 62
e 2 75
e 2 80
e 2 85
e 2 90
e 2 97
e 2 108
e 2 109
e 2 117
e 2 123
e 2 132
e 2 135
e 2 138
e 2 147
e 2 148
e 2 149
e 2 159
e 2 172
e 2 175
e 2 181
e 2 199
e 3 13
e 3 14
e 3 17
e 3 19
e 3 25
e 3 35
e 3 37
e 3 38
e 3 42
e 3 44
e 3 50
e 3 62
e 3 63
e 3 70
e 3 83
e 3 85
e 3 91
e 3 94
e 3 97
e 3 99
e 3 102
e 3 105
e 3 109
e 3 124
e 3 125
e 3 128
e 3 132
e 3 134
e 3 136
e 3 143
e 3 150
e 3 153
e 3 154
e 3 159
e 3 175
e 3 179
e 3 180
e 3 182
e 3 183
e 3 200
e 4 23
e 4 29
e 4 30
e 4 34
e 4 35
e 4 40
e 4 42
e 4 43
e 4 44
e 4 54
e 4 62
e 4 70
e 4 75
e 4 77
e 4 83
e 4 85
e 4 86
e 4 91
e 4 93
e 4 107
e 4 108
e 4 122
e 4 125
e 4 128
e 4 131
e 4 140
e 4 147
e 4 151
e 4 160
e 4 161
e 4 162
e 4 163
e 4 165
e 4 173
e 4 181
e 5 19
e 5 22
e 5 26
e 5 28
e 5 36
e 5 39
e 5 46
e 5 58
e 5 60
e 5 63
e 5 64
e 5 67
e 5 68
e 5 75
e 5 82
e 5 84
e 5 87
e 5 93
e 5 94
e 5 103
e 5 109
e 5 115
e 5 121
e 5 122
e 5 123
e 5 125
e 5 126
e 5 132
e 5 134
e 5 139
e 5 141
e 5 142
e 5 148
e 5 153
e 5 157
e 5 159
e 5 160
e 5 162
e 5 165
e 5 167
e 5 168
e 5 171
e 5 172
e 5 173
e 5 174
e 5 175
e 5 181
e 5 183
e 5 184
e 5 191
e 5 195
e 6 11
e 6 22
e 6 28
e 6 34
e 6 35
e 6 39
e 6 43
e 6 46
e 6 58
e 6 62
e 6 73
e 6 74
e 6 82
e 6 83
e 6 91
e 6 92
e 6 94
e 6 95
e 6 98
e 6 106
e 6 108
e 6 112
e 6 118
e 6 120
e 6 130
e 6 143
e 6 158
e 6 165
e 6 166
e 6 169
e 6 173
e 6 177
e 6 179
e 6 180
e 6 183
e 6 185
e 6 194
e 6 198
e 6 200
e 7 14
e 7 16
e 7 23
e 7 26
e 7 28
e 7 30
e 7 37
e 7 38
e 7 40
e 7 41
e 7 44
e 7 52
e 7 55
e 7 65
e 7 70
e 7 72
e 7 74
e 7 88
e 7 89
e 7 97
e 7 102
e 7 104
e 7 106
e 7 107
e 7 109
e 7 111
e 7 115
e 7 120
e 7 122
e 7 125
e 7 130
e 7 131
e 7 132
e 7 133
e 7 136
e 7 140
e 7 145
e 7 147
e 7 148
e 7 160
e 7 163
e 7 164
e 7 166
e 7 169
e 7 170
e 7 174
e 7 175
e 7 178
e 7 183
e 7 185
e 7 186
e 7 189
e 7 190
e 7 199
e 8 25
e 8 28
e 8 31
e 8 50
e 8 52
e 8 55
e 8 57
e 8 59
e 8 62
e 8 63
e 8 65
e 8 71
e 8 73
e 8 77
e 8 85
e 8 103
e 8 109
e 8 110
e 8 112
e 8 118
e 8 119
e 8 120
e 8 122
e 8 123
e 8 127
e 8 131
e 8 132
e 8 141
e 8 142
e 8 149
e 8 157
e 8 160
e 8 172
e 8 173
e 8 178
e 8 182
e 8 186
e 8 188
e 8 192
e 8 193
e 8 200
e 9 10
e 9 11
e 9 15
e 9 24
e 9 26
e 9 30
e 9 38
e 9 40
e 9 42
e 9 43
e 9 44
e 9 45
e 9 54
e 9 62
e 9 68
e 9 69
e 9 76
e 9 82
e 9 87
e 9 93
e 9 104
e 9 105
e 9 109
e 9 112
e 9 117
e 9 119
e 9 120
e 9 140
e 9 148
e 9 153
e 9 157
e 9 159
e 9 162
e 9 163
e 9 164
e 9 167
e 9 169
e 9 184
e 9 192
e 9 193
e 10 12
e 10 13
e 10 15
e 10 18
e 10 24
e 10 28
e 10 32
e 10 33
e 10 34
e 10 35
e 10 39
e 10 42
e 10 47
e 10 53
e 10 54
e 10 55
e 10 58
e 10 67
e 10 71
e 10 77
e 10 78
e 10 81
e 10 87
e 10 88
e 10 94
e 10 96
e 10 98
e 10 100
e 10 107
e 10 114
e 10 117
e 10 118
e 10 128
e 10 129
e 10 136
e 10 141
e 10 142
e 10 144
e 10 159
e 10 165
e 10 172
e 10 176
e 10 183
e 10 184
e 10 187
e 10 188
e 10 190
e 10 191
e 10 193
e 10 199
e 11 15
e 11 17
e 11 22
e 11 23
e 11 27
e 11 29
e 11 30
e 11 49
e 11 50
e 11 55
e 11 66
e 11 69
e 11 73
e 11 80
e 11 90
e 11 91
e 11 93
e 11 95
e 11 99
e 11 100
e 11 106
e 11 110
e 11 112
e 11 118
e 11 122
e 11 133
e 11 137
e 11 138
e 11 142
e 11 144
e 11 145
e 11 146
e 11 157
e 11 162
e 11 163
e 11 164
e 11 165
e 11 166
e 11 173
e 11 187
e 11 189
e 11 190
e 11 193
e 11 194
e 12 13
e 12 23
e 12 28
e 12 35
e 12 46
e 12 55
e 12 59
e 12 61
e 12 65
e 12 67
e 12 71
e 12 72
e 12 84
e 12 88
e 12 101
e 12 104
e 12 109
e 12 110
e 12 111
e 12 112
e 12 117
e 12 118
e 12 120
e 12 122
e 12 128
e 12 129
e 12 133
e 12 139
e 12 143
e 12 145
e 12 159
e 12 161
e 12 168
e 12 180
e 12 182
e 12 184
e 12 187
e 12 189
e 12 190
e 12 199
e 13 15
e 13 20
e 13 25
e 13 36
e 13 38
e 13 44
e 13 53
e 13 58
e 13 60
e 13 61
e 13 66
e 13 73
e 13 75
e 13 78
e 13 83
e 13 93
e 13 98
e 13 99
e 13 100
e 13 101
e 13 103
e 13 106
e 13 128
e 13 130
e 13 141
e 13 145
e 13 148
e 13 152
e 13 162
e 13 164
e 13 166
e 13 179
e 13 183
e 13 188
e 14 15
e 14 24
e 14 25
e 14 27
e 14 28
e 14 30
e 14 31
e 14 45
e 14 49
e 14 50
e 14 52
e 14 54
e 14 69
e 14 78
e 14 82
e 14 83
e 14 87
e 14 93
e 14 97
e 14 100
e 14 107
e 14 109
e 14 111
e 14 112
e 14 119
e 14 129
e 14 130
e 14 131
e 14 143
e 14 145
e 14 147
e 14 164
e 14 167
e 14 172
e 14 175
e 14 176
e 14 178
e 14 190
e 14 192
e 14 197
e 15 24
e 15 25
e 15 28
e 15 29
e 15 30
e 15 36
e 15 37
e 15 41
e 15 52
e 15 53
e 15 56
e 15 59
e 15 65
e 15 66
e 15 68
e 15 74
e 15 78
e 15 89
e 15 93
e 15 96
e 15 97
e 15 100
e 15 108
e 15 111
e 15 115
e 15 122
e 15 131
e 15 132
e 15 133
e 15 142
e 15 146
e 15 147
e 15 148
e 15 156
e 15 158
e 15 162
e 15 163
e 15 164
e 15 166
e 15 172
e 15 178
e 15 185
e 15 186
e 15 189
e 15 190
e 15 193
e 16 23
e 16 26
e 16 27
e 16 37
e 16 39
e 16 51
e 16 58
e 16 62
e 16 69
e 16 74
e 16 77
e 16 95
e 16 97
e 16 98
e 16 104
e 16 105
e 16 110
e 16 115
e 16 116
e 16 117
e 16 125
e 16 127
e 16 139
e 16 140
e 16 149
e 16 160
e 16 166
e 16 173
e 16 174
e 16 175
e 16 181
e 16 182
e 16 191
e 16 199
e 16 200
e 17 35
e 17 38
e 17 42
e 17 43
e 17 46
e 17 47
e 17 48
e 17 53
e 17 54
e 17 55
e 17 57
e 17 64
e 17 66
e 17 71
e 17 76
e 17 77
e 17 80
e 17 86
e 17 96
e 17 99
e 17 103
e 17 106
e 17 114
e 17 120
e 17 124
e 17 128
e 17 138
e 17 144
e 17 157
e 17 159
e 17 162
e 17 164
e 17 169
e 17 176
e 17 177
e 17 179
e 17 181
e 17 184
e 17 192
e 17 199
e 18 22
e 18 25
e 18 27
e 18 28
e 18 36
e 18 41
e 18 58
e 18 61
e 18 62
e 18 63
e 18 71
e 18 79
e 18 82
e 18 83
e 18 84
e 18 86
e 18 93
e 18 94
e 18 100
e 18 104
e 18 108
e 18 109
e 18 111
e 18 116
e 18 117
e 18 121
e 18 127
e 18 129
e 18 131
e 18 136
e 18 139
e 18 143
e 18 145
e 18 148
e 18 149
e 18 165
e 18 169
e 18 171
e 18 181
e 18 182
e 18 195
e 18 198
e 19 22
e 19 31
e 19 44
e 19 45
e 19 51
e 19 60
e 19 63
e 19 68
e 19 72
e 19 76
e 19 81
e 19 85
e 19 86
e 19 89
e 19 90
e 19 92
e 19 97
e 19 107
e 19 113
e 19 117
e 19 121
e 19 134
e 19 139
e 19 161
e 19 171
e 19 172
e 19 174
e 19 179
e 19 185
e 19 195
e 19 196
e 20 31
e 20 32
e 20 36
e 20 40
e 20 44
e 20 45
e 20 58
e 20 59
e 20 62
e 20 63
e 20 64
e 20 78
e 20 79
e 20 81
e 20 82
e 20 92
e 20 106
e 20 108
e 20 109
e 20 116
e 20 132
e 20 138
e 20 160
e 20 162
e 20 164
e 20 166
e 20 170
e 20 177
e 20 189
e 20 197
e 21 23
e 21 29
e 21 30
e 21 31
e 21 33
e 21 37
e 21 40
e 21 42
e 21 46
e 21 50
e 21 66
e 21 69
e 21 78
e 21 85
e 21 86
e 21 90
e 21 91
e 21 92
e 21 93
e 21 99
e 21 102
e 21 106
e 21 108
e 21 110
e 21 114
e 21 118
e 21 127
e 21 129
e 21 140
e 21 146
e 21 154
e 21 165
e 21 167
e 21 168
e 21 175
e 21 184
e 21 187
e 21 191
e 22 31
e 22 39
e 22 40
e 22 41
e 22 44
e 22 45
e 22 48
e 22 49
e 22 52
e 22 56
e 22 57
e 22 58
e 22 70
e 22 80
e 22 83
e 22 84
e 22 96
e 22 107
e 22 114
e 22 121
e 22 122
e 22 123
e 22 126
e 22 134
e 22 135
e 22 139
e 22 140
e 22 141
e 22 154
e 22 161
e 22 163
e 22 169
e 22 172
e 22 173
e 22 183
e 22 189
e 22 192
e 22 198
e 22 200
e 23 33
e 23 34
e 23 35
e 23 39
e 23 40
e 23 53
e 23 55
e 23 56
e 23 63
e 23 65
e 23 69
e 23 70
e 23 74
e 23 78
e 23 94
e 23 100
e 23 103
e 23 108
e 23 112
e 23 124
e 23 129
e 23 137
e 23 143
e 23 151
e 23 164
e 23 167
e 23 176
e 23 177
e 23 179
e 23 186
e 23 191
e 24 26
e 24 33
e 24 36
e 24 39
e 24 45
e 24 46
e 24 47
e 24 53
e 24 55
e 24 58
e 24 66
e 24 80
e 24 82
e 24 84
e 24 88
e 24 89
e 24 90
e 24 94
e 24 97
e 24 106
e 24 115
e 24 118
e 24 120
e 24 121
e 24 122
e 24 130
e 24 134
e 24 137
e 24 139
e 24 140
e 24 152
e 24 159
e 24 167
e 24 169
e 24 172
e 24 180
e 24 181
e 24 187
e 24 189
e 24 190
e 24 192
e 24 196
e 25 30
e 25 31
e 25 36
e 25 46
e 25 52
e 25 56
e 25 57
e 25 69
e 25 70
e 25 79
e 25 80
e 25 83
e 25 90
e 25 91
e 25 92
e 25 95
e 25 97
e 25 100
e 25 103
e 25 110
e 25 113
e 25 124
e 25 138
e 25 143
e 25 153
e 25 155
e 25 158
e 25 166
e 25 180
e 25 188
e 25 197
e 25 199
e 26 33
e 26 36
e 26 42
e 26 49
e 26 51
e 26 60
e 26 63
e 26 64
e 26 68
e 26 72
e 26 73
e 26 75
e 26 82
e 26 92
e 26 99
e 26 104
e 26 108
e 26 110
e 26 118
e 26 121
e 26 122
e 26 130
e 26 131
e 26 135
e 26 139
e 26 140
e 26 142
e 26 143
e 26 149
e 26 158
e 26 172
e 26 174
e 26 179
e 26 180
e 26 183
e 26 184
e 27 32
e 27 41
e 27 55
e 27 57
e 27 58
e 27 64
e 27 68
e 27 69
e 27 72
e 27 73
e 27 75
e 27 87
e 27 88
e 27 96
e 27 99
e 27 100
e 27 107
e 27 121
e 27 122
e 27 123
e 27 124
e 27 138
e 27 143
e 27 146
e 27 150
e 27 163
e 27 166
e 27 171
e 27 176
e 27 178
e 27 185
e 27 190
e 27 193
e 27 196
e 27 198
e 28 29
e 28 37
e 28 46
e 28 51
e 28 58
e 28 63
e 28 72
e 28 76
e 28 83
e 28 86
e 28 90
e 28 94
e 28 99
e 28 102
e 28 111
e 28 114
e 28 115
e 28 117
e 28 127
e 28 134
e 28 143
e 28 145
e 28 153
e 28 154
e 28 156
e 28 167
e 28 169
e 28 173
e 28 178
e 28 182
e 28 185
e 28 191
e 29 30
e 29 32
e 29 38
e 29 43
e 29 56
e 29 59
e 29 61
e 29 70
e 29 80
e 29 96
e 29 102
e 29 104
e 29 107
e 29 110
e 29 111
e 29 113
e 29 121
e 29 124
e 29 133
e 29 135
e 29 139
e 29 140
e 29 141
e 29 149
e 29 158
e 29 164
e 29 165
e 29 174
e 29 181
e 29 186
e 29 195
e 30 31
e 30 35
e 30 40
e 30 41
e 30 42
e 30 48
e 30 58
e 30 61
e 30 62
e 30 67
e 30 69
e 30 73
e 30 86
e 30 90
e 30 101
e 30 107
e 30 108
e 30 114
e 30 119
e 30 122
e 30 124
e 30 125
e 30 127
e 30 130
e 30 135
e 30 136
e 30 149
e 30 151
e 30 154
e 30 157
e 30 163
e 30 173
e 30 174
e 30 177
e 30 180
e 30 183
e 30 186
e 30 188
e 30 199
e 31 36
e 31 38
e 31 44
e 31 53
e 31 55
e 31 56
e 31 66
e 31 67
e 31 69
e 31 73
e 31 81
e 31 92
e 31 94
e 31 100
e 31 113
e 31 117
e 31 121
e 31 125
e 31 130
e 31 133
e 31 143
e 31 150
e 31 153
e 31 157
e 31 161
e 31 164
e 31 169
e 31 172
e 31 181
e 31 191
e 31 195
e 31 196
e 31 197
e 31 199
e 32 55
e 32 56
e 32 60
e 32 70
e 32 77
e 32 81
e 32 83
e 32 86
e 32 88
e 32 90
e 32 95
e 32 96
e 32 97
e 32 98
e 32 100
e 32 113
e 32 116
e 32 123
e 32 125
e 32 127
e 32 138
e 32 140
e 32 141
e 32 143
e 32 147
e 32 149
e 32 160
e 32 161
e 32 165
e 32 166
e 32 167
e 32 169
e 32 170
e 32 175
e 32 178
e 32 179
e 32 184
e 32 187
e 32 191
e 32 197
e 32 200
e 33 34
e 33 36
e 33 41
e 33 58
e 33 72
e 33 79
e 33 86
e 33 88
e 33 90
e 33 95
e 33 97
e 33 99
e 33 109
e 33 115
e 33 116
e 33 118
e 33 130
e 33 132
e 33 135
e 33 142
e 33 145
e 33 162
e 33 177
e 33 184
e 34 37
e 34 38
e 34 41
e 34 57
e 34 58
e 34 60
e 34 70
e 34 74
e 34 77
e 34 81
e 34 82
e 34 83
e 34 89
e 34 98
e 34 105
e 34 106
e 34 107
e 34 115
e 34 116
e 34 126
e 34 128
e 34 129
e 34 133
e 34 135
e 34 137
e 34 140
e 34 145
e 34 146
e 34 152
e 34 156
e 34 161
e 34 166
e 34 177
e 34 182
e 34 184
e 34 189
e 34 192
e 34 197
e 34 200
e 35 36
e 35 37
e 35 39
e 35 52
e 35 55
e 35 72
e 35 75
e 35 81
e 35 82
e 35 90
e 35 91
e 35 95
e 35 115
e 35 120
e 35 126
e 35 143
e 35 144
e 35 154
e 35 161
e 35 162
e 35 165
e 35 170
e 35 173
e 35 187
e 35 188
e 35 199
e 35 200
e 36 42
e 36 46
e 36 47
e 36 51
e 36 53
e 36 61
e 36 62
e 36 65
e 36 68
e 36 71
e 36 76
e 36 77
e 36 78
e 36 83
e 36 88
e 36 89
e 36 96
e 36 101
e 36 102
e 36 117
e 36 119
e 36 122
e 36 136
e 36 137
e 36 138
e 36 139
e 36 153
e 36 155
e 36 173
e 36 176
e 36 182
e 36 184
e 36 199
e 36 200
e 37 40
e 37 48
e 37 50
e 37 61
e 37 65
e 37 67
e 37 68
e 37 72
e 37 73
e 37 86
e 37 89
e 37 95
e 37 113
e 37 116
e 37 117
e 37 128
e 37 133
e 37 135
e 37 139
e 37 143
e 37 144
e 37 152
e 37 153
e 37 159
e 37 171
e 37 180
e 37 182
e 37 184
e 37 187
e 37 188
e 37 189
e 37 191
e 37 197
e 37 199
e 38 39
e 38 42
e 38 52
e 38 55
e 38 57
e 38 59
e 38 61
e 38 62
e 38 71
e 38 74
e 38 78
e 38 84
e 38 86
e 38 91
e 38 102
e 38 106
e 38 107
e 38 109
e 38 119
e 38 122
e 38 124
e 38 125
e 38 128
e 38 136
e 38 137
e 38 155
e 38 156
e 38 159
e 38 164
e 38 166
e 38 177
e 38 178
e 38 182
e 38 183
e 38 189
e 38 192
e 39 60
e 39 71
e 39 81
e 39 83
e 39 94
e 39 96
e 39 100
e 39 104
e 39 109
e 39 110
e 39 120
e 39 124
e 39 125
e 39 132
e 39 142
e 39 148
e 39 156
e 39 159
e 39 160
e 39 161
e 39 163
e 39 167
e 39 172
e 39 178
e 39 179
e 39 181
e 40 50
e 40 55
e 40 59
e 40 62
e 40 63
e 40 64
e 40 73
e 40 74
e 40 81
e 40 82
e 40 87
e 40 99
e 40 104
e 40 108
e 40 111
e 40 112
e 40 116
e 40 123
e 40 132
e 40 135
e 40 138
e 40 149
e 40 170
e 40 174
e 40 177
e 40 178
e 40 179
e 40 180
e 40 181
e 40 185
e 40 187
e 40 197
e 40 200
e 41 42
e 41 43
e 41 44
e 41 50
e 41 57
e 41 69
e 41 70
e 41 73
e 41 76
e 41 79
e 41 83
e 41 101
e 41 102
e 41 103
e 41 109
e 41 119
e 41 121
e 41 127
e 41 132
e 41 135
e 41 142
e 41 150
e 41 166
e 41 169
e 41 178
e 41 181
e 41 190
e 41 200
e 42 43
e 42 51
e 42 53
e 42 56
e 42 57
e 42 70
e 42 72
e 42 74
e 42 75
e 42 82
e 42 83
e 42 91
e 42 97
e 42 103
e 42 106
e 42 113
e 42 121
e 42 127
e 42 130
e 42 143
e 42 146
e 42 151
e 42 156
e 42 159
e 42 171
e 42 173
e 42 174
e 42 177
e 42 183
e 42 199
e 42 200
e 43 48
e 43 53
e 43 60
e 43 68
e 43 70
e 43 71
e 43 80
e 43 88
e 43 94
e 43 95
e 43 100
e 43 103
e 43 106
e 43 111
e 43 113
e 43 119
e 43 121
e 43 133
e 43 140
e 43 145
e 43 147
e 43 149
e 43 152
e 43 153
e 43 155
e 43 158
e 43 159
e 43 160
e 43 165
e 43 168
e 43 169
e 43 190
e 43 195
e 44 47
e 44 51
e 44 52
e 44 54
e 44 57
e 44 81
e 44 82
e 44 88
e 44 91
e 44 93
e 44 96
e 44 97
e 44 100
e 44 101
e 44 104
e 44 117
e 44 119
e 44 121
e 44 122
e 44 128
e 44 131
e 44 134
e 44 141
e 44 145
e 44 149
e 44 152
e 44 153
e 44 155
e 44 165
e 44 166
e 44 167
e 44 168
e 44 169
e 44 173
e 44 180
e 44 190
e 44 191
e 44 192
e 44 199
e 45 49
e 45 53
e 45 56
e 45 60
e 45 74
e 45 75
e 45 78
e 45 80
e 45 82
e 45 88
e 45 99
e 45 107
e 45 116
e 45 118
e 45 121
e 45 127
e 45 132
e 45 138
e 45 152
e 45 154
e 45 155
e 45 156
e 45 158
e 45 159
e 45 160
e 45 164
e 45 171
e 45 180
e 45 185
e 45 187
e 45 188
e 45 198
e 45 199
e 46 57
e 46 67
e 46 70
e 46 91
e 46 92
e 46 95
e 46 98
e 46 99
e 46 110
e 46 112
e 46 129
e 46 131
e 46 132
e 46 135
e 46 138
e 46 141
e 46 145
e 46 147
e 46 152
e 46 153
e 46 168
e 46 173
e 46 176
e 46 183
e 46 197
e 47 50
e 47 53
e 47 65
e 47 74
e 47 84
e 47 110
e 47 113
e 47 115
e 47 119
e 47 127
e 47 129
e 47 131
e 47 134
e 47 136
e 47 139
e 47 150
e 47 154
e 47 155
e 47 164
e 47 165
e 47 169
e 47 173
e 47 184
e 47 185
e 47 193
e 48 58
e 48 60
e 48 63
e 48 64
e 48 66
e 48 69
e 48 71
e 48 77
e 48 91
e 48 95
e 48 96
e 48 100
e 48 101
e 48 102
e 48 103
e 48 108
e 48 116
e 48 118
e 48 119
e 48 123
e 48 125
e 48 126
e 48 127
e 48 129
e 48 139
e 48 142
e 48 143
e 48 147
e 48 152
e 48 156
e 48 163
e 48 164
e 48 169
e 48 172
e 48 177
e 48 182
e 48 192
e 48 193
e 49 51
e 49 55
e 49 67
e 49 69
e 49 78
e 49 85
e 49 86
e 49 103
e 49 107
e 49 108
e 49 119
e 49 122
e 49 125
e 49 128
e 49 129
e 49 149
e 49 152
e 49 157
e 49 158
e 49 161
e 49 169
e 49 175
e 49 183
e 49 185
e 49 194
e 49 200
e 50 70
e 50 72
e 50 74
e 50 76
e 50 81
e 50 85
e 50 88
e 50 95
e 50 100
e 50 103
e 50 104
e 50 110
e 50 113
e 50 116
e 50 125
e 50 134
e 50 142
e 50 151
e 50 162
e 50 165
e 50 166
e 50 173
e 50 181
e 50 183
e 50 193
e 50 194
e 50 197
e 50 200
e 51 54
e 51 56
e 51 60
e 51 62
e 51 69
e 51 78
e 51 83
e 51 90
e 51 96
e 51 98
e 51 105
e 51 113
e 51 116
e 51 127
e 51 135
e 51 140
e 51 141
e 51 145
e 51 156
e 51 158
e 51 167
e 51 168
e 51 172
e 51 176
e 51 178
e 51 186
e 51 187
e 51 193
e 51 195
e 52 58
e 52 59
e 52 63
e 52 67
e 52 71
e 52 75
e 52 80
e 52 83
e 52 86
e 52 87
e 52 98
e 52 107
e 52 112
e 52 116
e 52 117
e 52 127
e 52 128
e 52 132
e 52 135
e 52 136
e 52 139
e 52 141
e 52 142
e 52 144
e 52 149
e 52 161
e 52 162
e 52 165
e 52 167
e 52 169
e 52 170
e 52 171
e 52 176
e 52 177
e 52 183
e 52 184
e 52 190
e 52 193
e 52 194
e 52 197
e 52 199
e 53 56
e 53 57
e 53 59
e 53 66
e 53 68
e 53 70
e 53 76
e 53 80
e 53 81
e 53 88
e 53 90
e 53 93
e 53 99
e 53 100
e 53 109
e 53 113
e 53 128
e 53 129
e 53 135
e 53 140
e 53 145
e 53 154
e 53 157
e 53 164
e 53 165
e 53 167
e 53 173
e 53 179
e 53 181
e 53 186
e 53 190
e 53 194
e 53 195
e 53 197
e 54 57
e 54 64
e 54 66
e 54 82
e 54 83
e 54 102
e 54 104
e 54 108
e 54 110
e 54 112
e 54 114
e 54 137
e 54 139
e 54 144
e 54 146
e 54 147
e 54 153
e 54 154
e 54 159
e 54 164
e 54 165
e 54 166
e 54 167
e 54 169
e 54 171
e 54 177
e 54 178
e 54 180
e 54 185
e 54 192
e 55 56
e 55 58
e 55 59
e 55 70
e 55 71
e 55 79
e 55 82
e 55 86
e 55 88
e 55 89
e 55 104
e 55 106
e 55 110
e 55 115
e 55 119
e 55 121
e 55 124
e 55 141
e 55 142
e 55 144
e 55 156
e 55 158
e 55 176
e 55 183
e 55 185
e 55 188
e 55 196
e 55 199
e 56 60
e 56 62
e 56 85
e 56 87
e 56 89
e 56 94
e 56 95
e 56 96
e 56 98
e 56 101
e 56 105
e 56 108
e 56 134
e 56 146
e 56 155
e 56 160
e 56 162
e 56 163
e 56 165
e 56 168
e 56 169
e 56 171
e 56 179
e 56 182
e 56 187
e 56 192
e 56 194
e 56 198
e 57 60
e 57 67
e 57 71
e 57 76
e 57 79
e 57 82
e 57 86
e 57 95
e 57 97
e 57 99
e 57 104
e 57 113
e 57 114
e 57 115
e 57 120
e 57 129
e 57 144
e 57 145
e 57 146
e 57 147
e 57 148
e 57 161
e 57 166
e 57 168
e 57 174
e 57 179
e 57 181
e 57 189
e 57 193
e 57 198
e 58 60
e 58 63
e 58 67
e 58 73
e 58 75
e 58 83
e 58 85
e 58 86
e 58 90
e 58 91
e 58 97
e 58 109
e 58 114
e 58 115
e 58 116
e 58 117
e 58 121
e 58 128
e 58 134
e 58 140
e 58 145
e 58 149
e 58 167
e 58 176
e 58 186
e 58 188
e 58 200
e 59 60
e 59 61
e 59 75
e 59 94
e 59 99
e 59 101
e 59 104
e 59 107
e 59 108
e 59 115
e 59 125
e 59 128
e 59 139
e 59 149
e 59 162
e 59 168
e 59 172
e 59 178
e 59 179
e 59 190
e 59 191
e 60 65
e 60 68
e 60 77
e 60 101
e 60 102
e 60 103
e 60 107
e 60 112
e 60 114
e 60 115
e 60 117
e 60 120
e 60 121
e 60 123
e 60 125
e 60 127
e 60 128
e 60 132
e 60 138
e 60 139
e 60 145
e 60 153
e 60 157
e 60 158
e 60 160
e 60 165
e 60 167
e 60 172
e 60 174
e 60 177
e 60 180
e 60 181
e 60 184
e 60 187
e 60 188
e 60 189
e 60 193
e 60 195
e 60 197
e 60 198
e 61 65
e 61 66
e 61 67
e 61 70
e 61 94
e 61 96
e 61 107
e 61 108
e 61 112
e 61 116
e 61 119
e 61 130
e 61 136
e 61 137
e 61 141
e 61 161
e 61 169
e 61 171
e 61 176
e 61 177
e 61 179
e 61 181
e 61 190
e 61 192
e 61 197
e 62 70
e 62 76
e 62 77
e 62 84
e 62 88
e 62 92
e 62 95
e 62 100
e 62 104
e 62 106
e 62 109
e 62 112
e 62 120
e 62 123
e 62 136
e 62 137
e 62 139
e 62 141
e 62 143
e 62 149
e 62 155
e 62 160
e 62 161
e 62 173
e 62 176
e 62 177
e 62 179
e 62 180
e 62 181
e 62 183
e 62 184
e 62 189
e 62 196
e 63 69
e 63 71
e 63 73
e 63 81
e 63 83
e 63 90
e 63 96
e 63 99
e 63 110
e 63 112
e 63 116
e 63 121
e 63 123
e 63 126
e 63 128
e 63 131
e 63 139
e 63 142
e 63 144
e 63 145
e 63 148
e 63 152
e 63 154
e 63 156
e 63 161
e 63 163
e 63 168
e 63 172
e 63 174
e 63 176
e 63 184
e 63 185
e 63 194
e 63 195
e 64 66
e 64 72
e 64 76
e 64 84
e 64 86
e 64 89
e 64 90
e 64 93
e 64 94
e 64 97
e 64 100
e 64 105
e 64 108
e 64 109
e 64 113
e 64 123
e 64 132
e 64 135
e 64 143
e 64 157
e 64 159
e 64 160
e 64 168
e 64 169
e 64 175
e 64 177
e 64 181
e 64 185
e 64 196
e 65 66
e 65 69
e 65 70
e 65 72
e 65 79
e 65 81
e 65 84
e 65 85
e 65 88
e 65 104
e 65 116
e 65 125
e 65 126
e 65 128
e 65 131
e 65 137
e 65 142
e 65 147
e 65 148
e 65 159
e 65 164
e 65 170
e 65 177
e 65 183
e 65 190
e 65 191
e 66 70
e 66 72
e 66 76
e 66 78
e 66 85
e 66 87
e 66 91
e 66 92
e 66 100
e 66 103
e 66 109
e 66 116
e 66 127
e 66 131
e 66 133
e 66 149
e 66 151
e 66 156
e 66 166
e 66 169
e 66 174
e 66 175
e 66 177
e 66 195
e 67 69
e 67 70
e 67 75
e 67 77
e 67 86
e 67 91
e 67 98
e 67 108
e 67 123
e 67 137
e 67 145
e 67 147
e 67 149
e 67 152
e 67 163
e 67 166
e 67 173
e 67 179
e 67 186
e 67 187
e 67 196
e 68 70
e 68 76
e 68 84
e 68 85
e 68 89
e 68 92
e 68 97
e 68 115
e 68 133
e 68 140
e 68 141
e 68 142
e 68 144
e 68 154
e 68 157
e 68 159
e 68 160
e 68 179
e 68 183
e 68 189
e 68 196
e 69 78
e 69 80
e 69 81
e 69 82
e 69 83
e 69 86
e 69 94
e 69 101
e 69 102
e 69 107
e 69 108
e 69 110
e 69 119
e 69 121
e 69 123
e 69 137
e 69 138
e 69 141
e 69 151
e 69 155
e 69 167
e 69 169
e 69 170
e 69 173
e 69 175
e 69 179
e 69 180
e 69 182
e 69 184
e 69 186
e 69 192
e 70 73
e 70 74
e 70 78
e 70 85
e 70 87
e 70 88
e 70 89
e 70 93
e 70 106
e 70 111
e 70 114
e 70 117
e 70 120
e 70 121
e 70 124
e 70 127
e 70 134
e 70 144
e 70 152
e 70 154
e 70 173
e 70 175
e 70 176
e 70 177
e 70 178
e 70 185
e 70 188
e 70 189
e 70 190
e 70 194
e 70 198
e 70 199
e 71 72
e 71 76
e 71 81
e 71 87
e 71 94
e 71 96
e 71 97
e 71 102
e 71 111
e 71 112
e 71 121
e 71 122
e 71 128
e 71 129
e 71 133
e 71 138
e 71 142
e 71 150
e 71 152
e 71 156
e 71 166
e 71 168
e 71 170
e 71 177
e 71 184
e 71 186
e 71 188
e 71 189
e 72 99
e 72 100
e 72 101
e 72 111
e 72 119
e 72 126
e 72 132
e 72 134
e 72 141
e 72 142
e 72 147
e 72 162
e 72 163
e 72 166
e 72 171
e 72 172
e 72 173
e 72 180
e 72 183
e 72 186
e 72 187
e 72 191
e 72 196
e 73 78
e 73 79
e 73 82
e 73 84
e 73 99
e 73 105
e 73 108
e 73 110
e 73 116
e 73 118
e 73 127
e 73 130
e 73 131
e 73 132
e 73 143
e 73 148
e 73 156
e 73 158
e 73 172
e 73 187
e 73 191
e 74 75
e 74 78
e 74 83
e 74 84
e 74 91
e 74 101
e 74 103
e 74 104
e 74 111
e 74 112
e 74 123
e 74 127
e 74 136
e 74 139
e 74 142
e 74 158
e 74 160
e 74 166
e 74 169
e 74 173
e 74 176
e 74 180
e 74 185
e 74 192
e 74 194
e 74 195
e 74 198
e 75 81
e 75 86
e 75 88
e 75 90
e 75 107
e 75 112
e 75 117
e 75 119
e 75 123
e 75 130
e 75 131
e 75 132
e 75 135
e 75 153
e 75 155
e 75 163
e 75 168
e 75 169
e 75 172
e 75 175
e 75 184
e 75 186
e 75 187
e 75 189
e 75 190
e 75 193
e 75 194
e 76 78
e 76 84
e 76 98
e 76 101
e 76 109
e 76 115
e 76 125
e 76 126
e 76 140
e 76 144
e 76 151
e 76 152
e 76 157
e 76 159
e 76 163
e 76 174
e 76 182
e 76 183
e 76 185
e 76 189
e 76 190
e 76 191
e 76 196
e 76 197
e 76 199
e 77 82
e 77 83
e 77 89
e 77 95
e 77 102
e 77 106
e 77 110
e 77 115
e 77 116
e 77 117
e 77 122
e 77 123
e 77 126
e 77 127
e 77 131
e 77 140
e 77 149
e 77 156
e 77 161
e 77 167
e 77 177
e 77 178
e 77 180
e 77 184
e 77 186
e 77 197
e 78 90
e 78 100
e 78 102
e 78 103
e 78 109
e 78 115
e 78 127
e 78 128
e 78 129
e 78 134
e 78 138
e 78 141
e 78 142
e 78 146
e 78 148
e 78 150
e 78 157
e 78 163
e 78 165
e 78 167
e 78 169
e 78 175
e 78 178
e 78 179
e 78 186
e 78 187
e 78 195
e 78 199
e 78 200
e 79 80
e 79 85
e 79 88
e 79 91
e 79 102
e 79 103
e 79 106
e 79 107
e 79 111
e 79 115
e 79 118
e 79 126
e 79 127
e 79 144
e 79 147
e 79 151
e 79 152
e 79 162
e 79 168
e 79 179
e 79 189
e 79 190
e 79 191
e 79 193
e 79 196
e 79 197
e 80 85
e 80 91
e 80 92
e 80 93
e 80 94
e 80 109
e 80 111
e 80 114
e 80 115
e 80 118
e 80 130
e 80 131
e 80 142
e 80 154
e 80 161
e 80 167
e 80 171
e 80 181
e 80 182
e 80 195
e 81 87
e 81 95
e 81 96
e 81 97
e 81 99
e 81 108
e 81 109
e 81 113
e 81 128
e 81 130
e 81 137
e 81 149
e 81 152
e 81 158
e 81 162
e 81 171
e 81 174
e 81 175
e 81 178
e 81 187
e 81 189
e 81 190
e 81 195
e 81 198
e 82 88
e 82 113
e 82 114
e 82 115
e 82 118
e 82 119
e 82 121
e 82 123
e 82 125
e 82 128
e 82 145
e 82 149
e 82 152
e 82 153
e 82 157
e 82 166
e 82 168
e 82 172
e 82 174
e 82 175
e 82 183
e 82 194
e 82 197
e 83 85
e 83 89
e 83 98
e 83 99
e 83 101
e 83 102
e 83 103
e 83 108
e 83 113
e 83 119
e 83 120
e 83 125
e 83 126
e 83 133
e 83 134
e 83 137
e 83 141
e 83 142
e 83 144
e 83 145
e 83 146
e 83 148
e 83 152
e 83 159
e 83 165
e 83 166
e 83 176
e 83 184
e 83 188
e 83 193
e 84 86
e 84 88
e 84 89
e 84 90
e 84 92
e 84 100
e 84 108
e 84 112
e 84 113
e 84 115
e 84 122
e 84 125
e 84 131
e 84 132
e 84 137
e 84 138
e 84 142
e 84 144
e 84 151
e 84 153
e 84 157
e 84 163
e 84 164
e 84 174
e 84 175
e 84 176
e 84 177
e 84 181
e 84 186
e 84 197
e 84 198
e 84 199
e 85 86
e 85 87
e 85 89
e 85 97
e 85 102
e 85 103
e 85 104
e 85 111
e 85 112
e 85 113
e 85 114
e 85 117
e 85 123
e 85 125
e 85 126
e 85 129
e 85 132
e 85 144
e 85 149
e 85 152
e 85 154
e 85 158
e 85 166
e 85 174
e 85 176
e 85 179
e 85 184
e 85 191
e 85 192
e 85 193
e 85 196
e 85 197
e 85 198
e 86 92
e 86 98
e 86 104
e 86 109
e 86 126
e 86 129
e 86 132
e 86 135
e 86 136
e 86 139
e 86 153
e 86 154
e 86 160
e 86 166
e 86 167
e 86 173
e 86 177
e 86 182
e 86 193
e 86 194
e 87 88
e 87 89
e 87 100
e 87 101
e 87 105
e 87 110
e 87 111
e 87 114
e 87 115
e 87 118
e 87 119
e 87 120
e 87 123
e 87 126
e 87 135
e 87 138
e 87 148
e 87 151
e 87 154
e 87 156
e 87 161
e 87 179
e 87 180
e 87 184
e 87 185
e 87 187
e 87 190
e 87 191
e 87 199
e 88 92
e 88 94
e 88 95
e 88 126
e 88 130
e 88 135
e 88 142
e 88 144
e 88 145
e 88 156
e 88 161
e 88 167
e 88 170
e 88 176
e 88 178
e 88 181
e 88 184
e 88 186
e 88 187
e 88 191
e 88 193
e 88 196
e 89 105
e 89 109
e 89 136
e 89 143
e 89 156
e 89 158
e 89 160
e 89 161
e 89 170
e 89 177
e 89 181
e 89 182
e 89 185
e 89 192
e 89 193
e 89 196
e 89 198
e 90 92
e 90 93
e 90 94
e 90 97
e 90 102
e 90 106
e 90 107
e 90 111
e 90 114
e 90 116
e 90 137
e 90 145
e 90 150
e 90 154
e 90 166
e 90 170
e 90 177
e 90 184
e 90 185
e 90 186
e 90 187
e 90 189
e 90 196
e 90 198
e 90 199
e 90 200
e 91 92
e 91 93
e 91 94
e 91 99
e 91 100
e 91 102
e 91 104
e 91 111
e 91 112
e 91 113
e 91 119
e 91 121
e 91 123
e 91 127
e 91 133
e 91 142
e 91 147
e 91 148
e 91 149
e 91 152
e 91 154
e 91 167
e 91 178
e 91 200
e 92 95
e 92 96
e 92 98
e 92 99
e 92 105
e 92 111
e 92 116
e 92 120
e 92 123
e 92 144
e 92 145
e 92 152
e 92 156
e 92 157
e 92 159
e 92 163
e 92 171
e 92 175
e 92 177
e 92 179
e 92 184
e 92 192
e 92 193
e 92 195
e 92 198
e 93 104
e 93 115
e 93 117
e 93 119
e 93 121
e 93 123
e 93 139
e 93 140
e 93 146
e 93 151
e 93 152
e 93 159
e 93 171
e 93 174
e 93 176
e 93 178
e 93 182
e 93 184
e 93 186
e 93 188
e 94 98
e 94 111
e 94 114
e 94 120
e 94 122
e 94 123
e 94 124
e 94 133
e 94 138
e 94 140
e 94 142
e 94 149
e 94 153
e 94 161
e 94 163
e 94 164
e 94 175
e 94 176
e 94 181
e 94 184
e 94 187
e 94 197
e 95 100
e 95 101
e 95 103
e 95 109
e 95 110
e 95 111
e 95 112
e 95 113
e 95 117
e 95 118
e 95 137
e 95 138
e 95 141
e 95 157
e 95 159
e 95 162
e 95 167
e 95 168
e 95 170
e 95 174
e 95 175
e 95 178
e 95 183
e 95 186
e 95 188
e 96 98
e 96 104
e 96 105
e 96 107
e 96 114
e 96 118
e 96 120
e 96 123
e 96 126
e 96 127
e 96 130
e 96 139
e 96 143
e 96 151
e 96 156
e 96 160
e 96 163
e 96 165
e 96 170
e 96 177
e 96 178
e 96 181
e 97 99
e 97 103
e 97 105
e 97 106
e 97 111
e 97 125
e 97 130
e 97 131
e 97 132
e 97 135
e 97 137
e 97 138
e 97 146
e 97 148
e 97 151
e 97 153
e 97 155
e 97 157
e 97 166
e 97 176
e 97 180
e 97 181
e 97 185
e 97 187
e 97 190
e 97 192
e 97 195
e 97 196
e 97 199
e 98 99
e 98 104
e 98 118
e 98 121
e 98 123
e 98 127
e 98 130
e 98 139
e 98 140
e 98 147
e 98 153
e 98 162
e 98 169
e 98 175
e 98 181
e 98 186
e 98 187
e 98 189
e 99 100
e 99 101
e 99 108
e 99 110
e 99 115
e 99 119
e 99 125
e 99 134
e 99 144
e 99 146
e 99 176
e 99 180
e 99 183
e 99 189
e 99 195
e 99 197
e 99 199
e 100 104
e 100 108
e 100 117
e 100 120
e 100 121
e 100 139
e 100 151
e 100 156
e 100 158
e 100 167
e 100 172
e 100 173
e 100 174
e 100 175
e 100 178
e 100 187
e 100 194
e 100 197
e 100 198
e 100 199
e 101 114
e 101 116
e 101 118
e 101 125
e 101 135
e 101 138
e 101 140
e 101 147
e 101 148
e 101 149
e 101 154
e 101 163
e 101 170
e 101 175
e 101 177
e 101 179
e 101 188
e 101 192
e 101 198
e 102 105
e 102 106
e 102 116
e 102 121
e 102 123
e 102 124
e 102 126
e 102 138
e 102 140
e 102 142
e 102 153
e 102 155
e 102 156
e 102 162
e 102 165
e 102 166
e 102 171
e 102 177
e 102 180
e 102 182
e 102 186
e 102 187
e 102 188
e 102 189
e 102 192
e 102 193
e 103 108
e 103 110
e 103 114
e 103 118
e 103 119
e 103 125
e 103 131
e 103 132
e 103 135
e 103 136
e 103 137
e 103 139
e 103 141
e 103 142
e 103 144
e 103 145
e 103 157
e 103 163
e 103 173
e 103 179
e 103 183
e 103 187
e 103 188
e 103 198
e 104 109
e 104 110
e 104 123
e 104 125
e 104 131
e 104 132
e 104 148
e 104 151
e 104 153
e 104 158
e 104 164
e 104 173
e 104 177
e 104 179
e 104 181
e 104 185
e 104 188
e 105 110
e 105 115
e 105 118
e 105 119
e 105 121
e 105 127
e 105 129
e 105 135
e 105 154
e 105 161
e 105 172
e 105 181
e 105 184
e 105 192
e 105 193
e 105 198
e 106 107
e 106 108
e 106 114
e 106 119
e 106 121
e 106 124
e 106 126
e 106 129
e 106 134
e 106 137
e 106 142
e 106 145
e 106 152
e 106 157
e 106 158
e 106 171
e 106 175
e 106 177
e 106 186
e 106 187
e 107 116
e 107 118
e 107 143
e 107 152
e 107 155
e 107 157
e 107 167
e 107 170
e 107 176
e 107 178
e 107 179
e 107 180
e 107 185
e 107 200
e 108 110
e 108 118
e 108 131
e 108 135
e 108 138
e 108 140
e 108 143
e 108 145
e 108 146
e 108 147
e 108 148
e 108 151
e 108 164
e 108 174
e 108 177
e 108 180
e 108 185
e 108 193
e 108 194
e 109 111
e 109 113
e 109 114
e 109 115
e 109 118
e 109 126
e 109 127
e 109 128
e 109 129
e 109 132
e 109 136
e 109 141
e 109 149
e 109 158
e 109 159
e 109 161
e 109 163
e 109 167
e 109 171
e 109 181
e 109 184
e 109 200
e 110 112
e 110 114
e 110 116
e 110 118
e 110 131
e 110 132
e 110 134
e 110 136
e 110 137
e 110 138
e 110 144
e 110 145
e 110 155
e 110 159
e 110 167
e 110 169
e 110 170
e 110 171
e 110 179
e 110 184
e 111 118
e 111 128
e 111 130
e 111 134
e 111 138
e 111 150
e 111 152
e 111 156
e 111 158
e 111 159
e 111 179
e 111 189
e 112 117
e 112 119
e 112 122
e 112 125
e 112 128
e 112 132
e 112 135
e 112 139
e 112 140
e 112 152
e 112 153
e 112 155
e 112 167
e 112 170
e 112 171
e 112 176
e 112 179
e 112 180
e 112 181
e 112 199
e 113 119
e 113 125
e 113 126
e 113 132
e 113 137
e 113 158
e 113 165
e 113 181
e 113 182
e 113 186
e 113 188
e 113 189
e 113 195
e 114 116
e 114 124
e 114 132
e 114 139
e 114 140
e 114 145
e 114 147
e 114 149
e 114 155
e 114 157
e 114 159
e 114 161
e 114 163
e 114 164
e 114 177
e 114 182
e 114 188
e 114 191
e 115 131
e 115 132
e 115 145
e 115 148
e 115 150
e 115 158
e 115 162
e 115 178
e 115 179
e 115 181
e 115 182
e 115 189
e 115 190
e 115 196
e 115 199
e 115 200
e 116 127
e 116 131
e 116 133
e 116 140
e 116 146
e 116 151
e 116 159
e 116 161
e 116 163
e 116 165
e 116 176
e 116 177
e 116 180
e 116 184
e 116 192
e 117 123
e 117 125
e 117 126
e 117 134
e 117 137
e 117 141
e 117 145
e 117 149
e 117 160
e 117 169
e 117 177
e 117 178
e 117 185
e 118 119
e 118 121
e 118 122
e 118 123
e 118 124
e 118 142
e 118 148
e 118 151
e 118 152
e 118 159
e 118 162
e 118 164
e 118 167
e 118 168
e 118 171
e 118 178
e 118 190
e 118 195
e 118 200
e 119 121
e 119 126
e 119 128
e 119 130
e 119 131
e 119 139
e 119 147
e 119 148
e 119 149
e 119 158
e 119 159
e 119 166
e 119 167
e 119 168
e 119 169
e 119 171
e 119 172
e 119 198
e 120 123
e 120 126
e 120 128
e 120 129
e 120 130
e 120 131
e 120 146
e 120 150
e 120 152
e 120 155
e 120 161
e 120 173
e 120 174
e 120 175
e 120 179
e 120 185
e 120 189
e 120 192
e 120 194
e 120 195
e 120 198
e 120 200
e 121 125
e 121 127
e 121 128
e 121 131
e 121 135
e 121 137
e 121 143
e 121 145
e 121 148
e 121 150
e 121 158
e 121 164
e 121 170
e 121 174
e 121 179
e 121 182
e 121 183
e 121 185
e 121 190
e 121 194
e 122 126
e 122 128
e 122 130
e 122 136
e 122 137
e 122 140
e 122 146
e 122 158
e 122 170
e 122 176
e 122 185
e 122 197
e 123 130
e 123 132
e 123 134
e 123 135
e 123 136
e 123 138
e 123 144
e 123 147
e 123 159
e 123 170
e 123 171
e 123 172
e 123 178
e 123 179
e 123 182
e 123 186
e 123 188
e 124 135
e 124 137
e 124 147
e 124 152
e 124 153
e 124 155
e 124 165
e 124 166
e 124 169
e 124 182
e 124 185
e 124 186
e 124 189
e 124 195
e 124 196
e 125 136
e 125 144
e 125 145
e 125 146
e 125 161
e 125 168
e 125 174
e 125 177
e 125 185
e 125 187
e 126 128
e 126 136
e 126 138
e 126 143
e 126 145
e 126 151
e 126 158
e 126 163
e 126 164
e 126 167
e 126 171
e 126 173
e 126 179
e 126 182
e 126 188
e 127 131
e 127 136
e 127 137
e 127 140
e 127 144
e 127 155
e 127 158
e 127 159
e 127 169
e 127 175
e 127 193
e 127 198
e 128 148
e 128 150
e 128 155
e 128 157
e 128 163
e 128 165
e 128 166
e 128 169
e 128 173
e 128 179
e 128 181
e 128 182
e 128 183
e 128 196
e 128 199
e 129 132
e 129 135
e 129 138
e 129 141
e 129 144
e 129 146
e 129 147
e 129 149
e 129 151
e 129 153
e 129 166
e 129 175
e 129 179
e 129 197
e 130 133
e 130 135
e 130 140
e 130 156
e 130 164
e 130 165
e 130 167
e 130 169
e 130 175
e 130 178
e 130 181
e 130 187
e 130 188
e 130 194
e 130 197
e 130 199
e 131 133
e 131 134
e 131 141
e 131 148
e 131 157
e 131 163
e 131 168
e 131 169
e 131 173
e 131 174
e 131 176
e 131 177
e 131 181
e 131 199
e 132 133
e 132 136
e 132 137
e 132 145
e 132 150
e 132 154
e 132 170
e 132 183
e 132 188
e 132 195
e 133 135
e 133 153
e 133 166
e 133 171
e 133 175
e 133 176
e 133 186
e 133 190
e 133 193
e 134 139
e 134 140
e 134 143
e 134 150
e 134 156
e 134 159
e 134 160
e 134 165
e 134 174
e 134 178
e 134 180
e 134 181
e 134 182
e 134 183
e 134 186
e 134 187
e 134 199
e 135 139
e 135 145
e 135 169
e 135 176
e 135 179
e 135 196
e 136 139
e 136 143
e 136 145
e 136 150
e 136 152
e 136 154
e 136 169
e 136 175
e 136 177
e 136 181
e 136 187
e 136 194
e 136 197
e 137 146
e 137 166
e 137 177
e 137 186
e 137 187
e 137 199
e 138 139
e 138 144
e 138 146
e 138 149
e 138 155
e 138 168
e 138 170
e 138 176
e 138 180
e 138 181
e 138 189
e 138 191
e 138 194
e 139 140
e 139 141
e 139 142
e 139 152
e 139 153
e 139 160
e 139 164
e 139 170
e 139 176
e 139 178
e 139 186
e 139 187
e 139 189
e 139 192
e 139 198
e 140 141
e 140 148
e 140 149
e 140 159
e 140 166
e 140 167
e 140 169
e 140 173
e 140 175
e 140 179
e 140 181
e 140 188
e 140 196
e 140 197
e 141 142
e 141 145
e 141 146
e 141 149
e 141 151
e 141 154
e 141 160
e 141 164
e 141 168
e 141 169
e 141 173
e 141 178
e 141 180
e 141 184
e 141 185
e 141 194
e 141 195
e 141 197
e 142 145
e 142 146
e 142 149
e 142 157
e 142 160
e 142 166
e 142 168
e 142 170
e 142 175
e 142 186
e 142 189
e 142 190
e 142 198
e 143 148
e 143 160
e 143 161
e 143 167
e 143 168
e 143 169
e 143 176
e 143 177
e 143 188
e 143 197
e 144 147
e 144 150
e 144 158
e 144 159
e 144 164
e 144 168
e 144 170
e 144 171
e 144 188
e 144 192
e 144 193
e 144 194
e 144 197
e 144 198
e 144 199
e 145 166
e 145 178
e 145 181
e 145 183
e 145 191
e 145 192
e 145 194
e 145 198
e 145 199
e 146 147
e 146 150
e 146 151
e 146 153
e 146 160
e 146 162
e 146 163
e 146 164
e 146 170
e 146 171
e 146 175
e 146 179
e 147 148
e 147 153
e 147 155
e 147 160
e 147 161
e 147 163
e 147 165
e 147 170
e 147 175
e 147 181
e 147 184
e 147 185
e 147 187
e 147 189
e 148 149
e 148 154
e 148 159
e 148 162
e 148 164
e 148 165
e 148 168
e 148 169
e 148 173
e 148 174
e 148 186
e 148 192
e 149 157
e 149 158
e 149 161
e 149 175
e 149 183
e 149 184
e 149 185
e 149 188
e 149 195
e 149 200
e 150 156
e 150 161
e 150 168
e 150 175
e 150 185
e 150 187
e 150 195
e 150 198
e 150 200
e 151 154
e 151 162
e 151 163
e 151 171
e 151 177
e 151 181
e 151 182
e 151 183
e 152 167
e 152 171
e 152 175
e 152 179
e 152 190
e 152 192
e 152 194
e 153 155
e 153 156
e 153 157
e 153 160
e 153 164
e 153 175
e 153 176
e 153 182
e 153 185
e 153 188
e 154 155
e 154 156
e 154 163
e 154 164
e 154 169
e 154 177
e 154 182
e 154 188
e 154 192
e 154 196
e 154 198
e 154 200
e 155 159
e 155 164
e 155 165
e 155 172
e 155 174
e 155 179
e 155 180
e 155 194
e 155 195
e 155 196
e 155 197
e 156 157
e 156 166
e 156 183
e 156 184
e 156 189
e 156 190
e 156 195
e 157 159
e 157 163
e 157 169
e 157 170
e 157 182
e 157 190
e 157 195
e 158 162
e 158 169
e 158 178
e 158 183
e 158 191
e 158 195
e 158 197
e 159 160
e 159 166
e 159 171
e 159 176
e 159 188
e 160 166
e 160 171
e 160 175
e 160 186
e 160 196
e 161 163
e 161 165
e 161 169
e 161 176
e 161 177
e 162 163
e 162 166
e 162 167
e 162 168
e 162 170
e 162 172
e 162 179
e 163 166
e 163 167
e 163 173
e 163 174
e 163 175
e 163 177
e 163 182
e 163 186
e 163 190
e 164 176
e 164 183
e 164 197
e 164 199
e 165 168
e 165 169
e 165 170
e 165 171
e 165 172
e 165 176
e 165 183
e 165 193
e 165 195
e 166 169
e 166 170
e 166 171
e 166 174
e 166 177
e 166 183
e 166 184
e 166 187
e 166 189
e 166 193
e 166 198
e 167 170
e 167 175
e 167 177
e 167 179
e 167 180
e 167 187
e 167 188
e 168 177
e 168 179
e 168 185
e 168 189
e 168 192
e 168 199
e 169 174
e 169 175
e 169 185
e 169 193
e 169 200
e 170 173
e 170 179
e 170 182
e 170 185
e 170 190
e 171 173
e 171 178
e 171 179
e 171 188
e 171 199
e 172 173
e 172 176
e 172 177
e 172 181
e 172 192
e 172 193
e 173 175
e 173 188
e 173 191
e 173 192
e 174 186
e 175 177
e 175 178
e 175 179
e 175 186
e 175 193
e 176 190
e 176 200
e 177 184
e 177 188
e 177 190
e 177 198
e 179 189
e 179 191
e 179 198
e 180 188
e 180 193
e 180 196
e 180 197
e 181 184
e 181 188
e 181 190
e 181 193
e 181 194
e 182 183
e 182 184
e 182 185
e 182 200
e 183 189
e 184 185
e 184 187
e 184 189
e 184 190
e 184 191
e 184 193
e 184 199
e 184 200
e 185 189
e 185 200
e 186 189
e 186 200
e 187 193
e 187 199
e 188 193
e 189 190
e 189 196
e 190 191
e 190 194
e 191 196
e 192 196
e 194 200
e 195 199
e 196 200
